n=10; m= 10; 



42	65	39	14	1	91	92	26	89	36
77	17	35	3	14	35	49	54	72	19
16	68	83	64	24	29	67	72	4	57
56	62	80	83	70	66	24	66	27	25
74	70	85	86	22	59	89	42	33	76
92	35	51	52	22	71	43	17	65	47
51	26	92	69	33	74	27	1	4	50
47	29	88	19	85	88	24	9	47	94
55	32	61	92	1	46	89	85	10	88
74	70	85	86	22	59	89	42	33	76






